NAME : in_house_7_6
TYPE : TSP
DIMENSION : 7
EDGE_WEIGHT_TYPE : EXPLICIT
EDGE_WEIGHT_FORMAT : UPPER_ROW
COMMENT : INVERSION_SHIFT=7
EDGE_WEIGHT_SECTION
23
40
30
6
11
45
35
42
44
29
17
27
2
12
25
4
11
40
14
40
22
